p edge 50 324 5
v 13 4 5 6 8 17 19 24 30 37 38 41 42 48
v 8 3 13 15 22 23 29 43 50
v 14 1 7 9 11 12 14 20 21 26 28 34 35 36 49
v 7 10 16 27 33 40 44 47
v 8 2 18 25 31 32 39 45 46
e 1 3
e 1 6
e 1 9
e 1 13
e 1 14
e 1 15
e 1 16
e 1 17
e 1 20
e 1 30
e 1 31
e 1 32
e 1 36
e 1 37
e 1 40
e 1 42
e 1 44
e 1 46
e 2 6
e 2 7
e 2 12
e 2 14
e 2 15
e 2 19
e 2 24
e 2 28
e 2 34
e 2 35
e 2 39
e 2 45
e 2 47
e 3 5
e 3 6
e 3 7
e 3 9
e 3 16
e 3 18
e 3 20
e 3 27
e 3 28
e 3 29
e 3 33
e 3 36
e 4 6
e 4 20
e 4 21
e 4 24
e 4 32
e 4 36
e 4 40
e 4 42
e 5 8
e 5 10
e 5 11
e 5 13
e 5 21
e 5 24
e 5 31
e 5 32
e 5 33
e 5 34
e 5 35
e 5 37
e 5 40
e 5 44
e 5 46
e 6 10
e 6 11
e 6 13
e 6 28
e 6 34
e 6 37
e 6 41
e 6 44
e 6 50
e 7 12
e 7 13
e 7 14
e 7 21
e 7 27
e 7 28
e 7 33
e 7 35
e 7 39
e 7 44
e 7 45
e 7 47
e 8 9
e 8 13
e 8 22
e 8 24
e 8 27
e 8 28
e 8 32
e 8 34
e 8 35
e 8 45
e 8 48
e 9 13
e 9 14
e 9 17
e 9 27
e 9 28
e 9 30
e 9 33
e 9 34
e 9 37
e 9 38
e 9 39
e 9 43
e 9 44
e 9 48
e 9 49
e 9 50
e 10 13
e 10 17
e 10 19
e 10 23
e 10 27
e 10 32
e 10 34
e 10 36
e 10 37
e 10 38
e 10 39
e 11 13
e 11 21
e 11 24
e 11 29
e 11 30
e 11 37
e 11 39
e 11 42
e 11 50
e 12 15
e 12 17
e 12 23
e 12 25
e 12 29
e 12 30
e 12 32
e 12 35
e 12 40
e 12 45
e 12 47
e 13 17
e 13 20
e 13 21
e 13 24
e 13 25
e 13 26
e 13 27
e 13 31
e 13 35
e 13 37
e 13 39
e 13 41
e 13 42
e 13 48
e 14 15
e 14 22
e 14 23
e 14 29
e 14 32
e 14 34
e 14 35
e 14 38
e 14 39
e 14 41
e 14 44
e 14 45
e 14 48
e 15 25
e 15 39
e 15 41
e 15 45
e 16 20
e 16 24
e 16 26
e 16 29
e 16 41
e 16 42
e 16 47
e 17 19
e 17 20
e 17 26
e 17 31
e 17 32
e 17 39
e 17 41
e 17 43
e 18 21
e 18 24
e 18 26
e 18 29
e 18 31
e 18 33
e 18 36
e 18 37
e 18 41
e 18 44
e 18 46
e 18 49
e 19 20
e 19 24
e 19 25
e 19 26
e 19 28
e 19 32
e 19 35
e 19 36
e 19 41
e 19 44
e 20 21
e 20 23
e 20 26
e 20 36
e 20 37
e 21 24
e 21 34
e 21 36
e 21 37
e 21 38
e 21 49
e 22 27
e 22 29
e 22 33
e 22 36
e 22 39
e 22 44
e 23 29
e 23 32
e 23 33
e 23 41
e 23 46
e 23 47
e 24 27
e 24 31
e 24 33
e 25 27
e 25 30
e 25 32
e 25 34
e 25 35
e 25 37
e 25 42
e 25 49
e 26 27
e 26 29
e 26 39
e 26 41
e 26 42
e 26 47
e 26 49
e 27 30
e 27 32
e 27 36
e 27 41
e 27 45
e 27 49
e 28 29
e 28 30
e 28 31
e 28 34
e 28 39
e 28 41
e 28 42
e 28 45
e 28 46
e 28 48
e 28 49
e 29 30
e 29 32
e 29 34
e 29 37
e 29 38
e 29 40
e 29 41
e 29 45
e 29 50
e 30 31
e 30 35
e 30 38
e 30 39
e 30 40
e 30 41
e 31 33
e 31 37
e 31 43
e 32 38
e 32 42
e 32 43
e 32 47
e 32 48
e 32 49
e 33 38
e 33 40
e 33 41
e 33 42
e 33 50
e 34 36
e 34 37
e 34 45
e 34 49
e 35 41
e 35 43
e 35 44
e 35 47
e 37 41
e 38 42
e 38 48
e 38 50
e 39 44
e 40 45
e 40 50
e 41 43
e 42 47
e 42 48
e 43 46
e 43 47
e 44 50
e 46 47
e 46 49
e 47 49
